c FILE /home/rafael/Documents/HappySet/MIHS/inputs/happygen/output/graph_scale_free_k7_p0.3_v100_20241127_083859.txt
c SOURCE This is a scale-free graph formed for the happy graph colouring problem.
c DESCRIPTION It was generated using the problem generator of Rhyd Lewis
c
c GRAPH STATS
c Seed                             = -1745411860
c Number of Nodes                  = 100
c Number of colours k              = 7
c Number of pre-assignments        = 30
c Number of links per new node     = 5
c Density                          = 0.0979798
c 
c The degrees of nodes 1 to 100, respectively, are as follows 
c [35, 33, 32, 29, 24, 24, 24, 20, 20, 18, 18, 18, 18, 17, 17, 16, 15, 13, 12, 12, 12, 11, 11, 11, 11, 11, 
c  10, 10, 10, 10, 10, 10, 9, 9, 9, 9, 9, 9, 9, 9, 9, 9, 8, 8, 8, 8, 7, 7, 7, 7, 7, 
c  7, 7, 7, 7, 6, 6, 6, 6, 6, 6, 6, 6, 6, 6, 6, 6, 6, 6, 6, 6, 6, 6, 5, 5, 5, 
c  5, 5, 5, 5, 5, 5, 5, 5, 5, 5, 5, 5, 5, 5, 5, 5, 5, 5, 5, 5, 5, 5, 5, 5] 
c  
p edge 100 485 7
e 1 2
e 1 3
e 1 4
e 1 5
e 1 6
e 1 7
e 1 8
e 1 9
e 1 14
e 1 22
e 1 23
e 1 25
e 1 27
e 1 28
e 1 32
e 1 33
e 1 36
e 1 41
e 1 43
e 1 46
e 1 56
e 1 59
e 1 64
e 1 69
e 1 70
e 1 71
e 1 80
e 1 81
e 1 82
e 1 85
e 1 86
e 1 88
e 1 94
e 1 95
e 1 97
e 2 3
e 2 4
e 2 5
e 2 6
e 2 8
e 2 9
e 2 10
e 2 11
e 2 13
e 2 17
e 2 18
e 2 19
e 2 20
e 2 22
e 2 23
e 2 38
e 2 41
e 2 43
e 2 44
e 2 50
e 2 53
e 2 56
e 2 60
e 2 61
e 2 64
e 2 69
e 2 74
e 2 83
e 2 88
e 2 89
e 2 90
e 2 96
e 3 4
e 3 5
e 3 6
e 3 7
e 3 8
e 3 9
e 3 10
e 3 12
e 3 14
e 3 17
e 3 23
e 3 25
e 3 27
e 3 28
e 3 31
e 3 32
e 3 33
e 3 38
e 3 42
e 3 45
e 3 53
e 3 57
e 3 60
e 3 63
e 3 67
e 3 74
e 3 80
e 3 83
e 3 85
e 3 96
e 4 5
e 4 6
e 4 7
e 4 8
e 4 9
e 4 10
e 4 11
e 4 12
e 4 14
e 4 16
e 4 19
e 4 20
e 4 28
e 4 32
e 4 34
e 4 35
e 4 39
e 4 51
e 4 53
e 4 54
e 4 58
e 4 66
e 4 75
e 4 88
e 4 90
e 4 91
e 5 8
e 5 10
e 5 11
e 5 13
e 5 15
e 5 17
e 5 27
e 5 30
e 5 33
e 5 34
e 5 35
e 5 38
e 5 44
e 5 45
e 5 63
e 5 71
e 5 73
e 5 77
e 5 87
e 5 98
e 6 7
e 6 9
e 6 15
e 6 16
e 6 22
e 6 24
e 6 27
e 6 33
e 6 43
e 6 44
e 6 47
e 6 54
e 6 56
e 6 57
e 6 58
e 6 64
e 6 65
e 6 66
e 6 67
e 6 73
e 7 10
e 7 12
e 7 19
e 7 22
e 7 29
e 7 30
e 7 33
e 7 39
e 7 42
e 7 44
e 7 51
e 7 54
e 7 57
e 7 58
e 7 67
e 7 68
e 7 74
e 7 77
e 7 87
e 7 96
e 8 9
e 8 11
e 8 13
e 8 14
e 8 17
e 8 22
e 8 23
e 8 24
e 8 29
e 8 34
e 8 48
e 8 50
e 8 62
e 8 76
e 8 99
e 9 10
e 9 14
e 9 16
e 9 20
e 9 21
e 9 24
e 9 25
e 9 31
e 9 37
e 9 41
e 9 51
e 9 67
e 9 76
e 9 77
e 10 18
e 10 19
e 10 26
e 10 27
e 10 29
e 10 36
e 10 43
e 10 48
e 10 60
e 10 84
e 10 95
e 10 100
e 11 14
e 11 15
e 11 16
e 11 26
e 11 34
e 11 35
e 11 43
e 11 56
e 11 59
e 11 60
e 11 69
e 11 76
e 11 82
e 11 91
e 12 14
e 12 15
e 12 21
e 12 24
e 12 26
e 12 27
e 12 35
e 12 37
e 12 49
e 12 69
e 12 75
e 12 89
e 12 96
e 12 98
e 12 99
e 13 14
e 13 20
e 13 21
e 13 27
e 13 36
e 13 37
e 13 40
e 13 49
e 13 66
e 13 72
e 13 77
e 13 84
e 13 86
e 13 92
e 13 93
e 14 28
e 14 31
e 14 39
e 14 49
e 14 65
e 14 67
e 14 82
e 14 92
e 14 95
e 15 16
e 15 29
e 15 33
e 15 34
e 15 37
e 15 40
e 15 46
e 15 47
e 15 48
e 15 73
e 15 75
e 15 84
e 15 86
e 16 18
e 16 19
e 16 23
e 16 24
e 16 26
e 16 38
e 16 52
e 16 58
e 16 70
e 16 84
e 16 100
e 17 27
e 17 36
e 17 39
e 17 49
e 17 57
e 17 63
e 17 68
e 17 74
e 17 78
e 17 83
e 17 89
e 18 27
e 18 31
e 18 33
e 18 53
e 18 54
e 18 59
e 18 60
e 18 63
e 18 80
e 18 87
e 19 20
e 19 25
e 19 37
e 19 44
e 19 78
e 19 79
e 19 80
e 20 38
e 20 61
e 20 77
e 20 82
e 20 85
e 20 88
e 20 100
e 21 27
e 21 42
e 21 43
e 21 47
e 21 48
e 21 55
e 21 72
e 21 84
e 21 93
e 22 45
e 22 46
e 22 49
e 22 55
e 22 62
e 22 83
e 23 32
e 23 40
e 23 50
e 23 62
e 23 91
e 23 94
e 24 32
e 24 39
e 24 46
e 24 81
e 24 87
e 24 98
e 25 28
e 25 36
e 25 40
e 25 50
e 25 59
e 25 70
e 25 93
e 26 30
e 26 35
e 26 46
e 26 50
e 26 61
e 26 71
e 26 99
e 28 35
e 28 43
e 28 70
e 28 85
e 28 91
e 29 33
e 29 75
e 29 79
e 29 80
e 29 81
e 29 98
e 30 34
e 30 44
e 30 47
e 30 58
e 30 63
e 30 70
e 30 81
e 31 34
e 31 45
e 31 54
e 31 56
e 31 94
e 31 95
e 32 42
e 32 47
e 32 64
e 32 71
e 32 76
e 33 52
e 34 75
e 34 78
e 35 41
e 35 45
e 35 52
e 36 52
e 36 59
e 36 74
e 36 89
e 37 48
e 37 62
e 37 76
e 37 79
e 38 55
e 38 57
e 38 62
e 38 65
e 39 51
e 39 68
e 39 86
e 39 92
e 40 48
e 40 53
e 40 61
e 40 78
e 40 88
e 41 50
e 41 52
e 41 69
e 41 72
e 41 86
e 42 52
e 42 55
e 42 66
e 42 87
e 42 91
e 43 79
e 44 65
e 44 89
e 45 79
e 45 83
e 45 90
e 46 68
e 46 90
e 46 96
e 47 85
e 47 100
e 48 64
e 49 92
e 49 94
e 50 51
e 51 71
e 51 93
e 52 65
e 53 81
e 53 97
e 54 95
e 54 99
e 55 57
e 55 97
e 55 98
e 56 78
e 58 73
e 59 82
e 60 61
e 61 68
e 62 90
e 63 94
e 64 66
e 65 72
e 66 97
e 67 92
e 68 93
e 69 72
e 70 73
e 71 100
e 72 97
e 73 99
n 24 4
n 27 3
n 28 1
n 29 1
n 32 4
n 33 1
n 36 3
n 37 4
n 43 1
n 49 3
n 51 7
n 54 2
n 56 6
n 59 3
n 61 2
n 65 5
n 66 4
n 73 2
n 76 4
n 82 3
n 84 5
n 86 4
n 88 6
n 90 3
n 91 1
n 92 3
n 93 7
n 94 3
n 99 2
n 100 7
